NAME: rd100.tour
TYPE: TOUR
COMMENT: Cost = 9427.333012640955 Time = 17.866846 ms
DIMENSION: 100
TOUR_SECTION
81
80
65
51
83
90
91
64
36
57
47
99
53
6
79
10
33
3
4
32
78
20
74
26
9
12
85
14
82
75
21
49
67
97
63
86
15
62
18
1
60
8
69
13
87
71
68
48
30
22
41
34
7
40
42
43
25
24
55
39
96
29
35
44
100
52
45
16
98
66
76
58
88
84
31
23
2
89
59
95
77
93
28
37
19
46
50
73
56
92
27
17
72
70
38
54
94
11
61
5
-1